
n_res = 6;
rcap = [38, 40, 557, 592, 619, 553];
rtype = [1, 1, 2, 2, 2, 2];
n_tasks = 50;
modes =  [{1, 2, 3, 4, 5, 6}, {7, 8, 9, 10, 11, 12}, {13, 14, 15, 16, 17, 18}, {19, 20, 21, 22, 23, 24}, {25, 26, 27, 28, 29, 30}, {31, 32, 33, 34, 35, 36}, {37, 38, 39, 40, 41, 42}, {43, 44, 45, 46, 47, 48}, {49, 50, 51, 52, 53, 54}, {55, 56, 57, 58, 59, 60}, {61, 62, 63, 64, 65, 66}, {67, 68, 69, 70, 71, 72}, {73, 74, 75, 76, 77, 78}, {79, 80, 81, 82, 83, 84}, {85, 86, 87, 88, 89, 90}, {91, 92, 93, 94, 95, 96}, {97, 98, 99, 100, 101, 102}, {103, 104, 105, 106, 107, 108}, {109, 110, 111, 112, 113, 114}, {115, 116, 117, 118, 119, 120}, {121, 122, 123, 124, 125, 126}, {127, 128, 129, 130, 131, 132}, {133, 134, 135, 136, 137, 138}, {139, 140, 141, 142, 143, 144}, {145, 146, 147, 148, 149, 150}, {151, 152, 153, 154, 155, 156}, {157, 158, 159, 160, 161, 162}, {163, 164, 165, 166, 167, 168}, {169, 170, 171, 172, 173, 174}, {175, 176, 177, 178, 179, 180}, {181, 182, 183, 184, 185, 186}, {187, 188, 189, 190, 191, 192}, {193, 194, 195, 196, 197, 198}, {199, 200, 201, 202, 203, 204}, {205, 206, 207, 208, 209, 210}, {211, 212, 213, 214, 215, 216}, {217, 218, 219, 220, 221, 222}, {223, 224, 225, 226, 227, 228}, {229, 230, 231, 232, 233, 234}, {235, 236, 237, 238, 239, 240}, {241, 242, 243, 244, 245, 246}, {247, 248, 249, 250, 251, 252}, {253, 254, 255, 256, 257, 258}, {259, 260, 261, 262, 263, 264}, {265, 266, 267, 268, 269, 270}, {271, 272, 273, 274, 275, 276}, {277, 278, 279, 280, 281, 282}, {283, 284, 285, 286, 287, 288}, {289, 290, 291, 292, 293, 294}, {295, 296, 297, 298, 299, 300}];
succ =  [{15, 8, 5}, {15, 11, 10, 9, 8}, {15, 12, 10, 7}, {14, 13, 12, 11, 10}, {12, 10, 7}, {17, 15, 14, 11, 10}, {23, 18, 17, 14, 13}, {23, 17, 14, 13}, {18, 14, 13}, {25, 23, 22, 19, 18, 16}, {26, 25, 23, 22, 21, 18}, {25, 21, 18, 17, 16}, {25, 22, 21, 19, 16}, {26, 25, 21, 16}, {32, 31, 27, 26, 20}, {32, 31, 27, 20}, {32, 27, 26, 20}, {31, 27, 20}, {32, 30, 29, 28}, {28, 24}, {28, 24}, {35, 32, 30, 27}, {35, 31, 30, 27}, {35, 34, 30, 29}, {30, 27}, {39, 35, 34, 30}, {43, 37, 34, 33}, {43, 39, 38, 37, 35, 34}, {47, 46, 37, 36, 33}, {47, 46, 43, 42, 40, 38, 37}, {47, 36, 33}, {34}, {45, 42, 40, 39, 38}, {47, 46, 45, 36}, {46, 44, 40}, {44, 40}, {45, 41}, {50, 48, 44}, {50, 48, 44}, {50, 49, 48}, {50, 49, 48}, {49, 48}, {50, 48}, {49}, {48}, {48}, {48}, {}, {}, {}];
n_opt = 300;
dur = [3, 7, 8, 14, 17, 19, 2, 3, 9, 10, 13, 18, 2, 5, 6, 8, 12, 14, 2, 6, 10, 11, 12, 13, 3, 4, 7, 8, 9, 13, 5, 6, 7, 8, 9, 10, 3, 13, 14, 15, 17, 18, 3, 4, 6, 7, 8, 20, 12, 13, 14, 15, 16, 17, 8, 12, 13, 15, 16, 18, 13, 15, 16, 17, 18, 19, 4, 8, 12, 13, 14, 17, 5, 6, 7, 9, 12, 14, 3, 5, 6, 7, 14, 19, 1, 7, 9, 14, 15, 18, 6, 7, 8, 13, 15, 16, 2, 3, 6, 11, 13, 17, 6, 8, 12, 13, 14, 15, 5, 6, 15, 16, 17, 20, 3, 4, 8, 9, 10, 11, 4, 5, 6, 10, 17, 18, 3, 4, 6, 8, 16, 17, 3, 5, 9, 12, 18, 19, 2, 4, 5, 6, 8, 16, 2, 3, 6, 11, 18, 19, 1, 7, 9, 10, 13, 20, 1, 4, 5, 14, 18, 20, 3, 8, 9, 10, 17, 18, 1, 2, 3, 7, 14, 19, 3, 4, 5, 7, 10, 13, 6, 7, 9, 13, 19, 20, 1, 2, 4, 17, 18, 20, 6, 9, 12, 17, 19, 20, 2, 13, 14, 18, 19, 20, 3, 4, 5, 6, 13, 18, 3, 13, 14, 15, 16, 20, 1, 2, 3, 9, 14, 16, 4, 6, 9, 12, 14, 15, 5, 7, 14, 16, 18, 20, 1, 4, 5, 6, 17, 20, 1, 2, 3, 4, 7, 17, 3, 6, 8, 13, 17, 18, 1, 2, 7, 8, 9, 17, 3, 4, 5, 10, 12, 13, 2, 7, 9, 11, 17, 20, 8, 10, 11, 12, 14, 15, 6, 10, 11, 13, 14, 15, 4, 5, 7, 8, 13, 19, 6, 9, 13, 16, 17, 20, 2, 3, 4, 5, 10, 11];
rreq = [|13, 12, 12, 12, 12, 12, 14, 12, 12, 12, 10, 10, 13, 11, 10, 7, 5, 4, 17, 14, 13, 12, 11, 10, 13, 10, 8, 8, 5, 3, 8, 7, 7, 6, 5, 4, 14, 14, 14, 14, 14, 14, 8, 6, 6, 5, 5, 4, 12, 10, 10, 9, 8, 7, 3, 2, 2, 2, 2, 2, 19, 17, 11, 10, 6, 5, 19, 18, 17, 16, 14, 13, 7, 6, 6, 6, 5, 5, 15, 12, 11, 10, 9, 8, 7, 7, 5, 5, 3, 3, 1, 1, 1, 1, 1, 1, 19, 17, 17, 16, 13, 13, 12, 12, 10, 10, 8, 7, 17, 16, 15, 14, 13, 13, 9, 8, 7, 5, 3, 3, 16, 15, 14, 13, 11, 11, 8, 8, 7, 6, 4, 4, 17, 16, 13, 10, 7, 5, 12, 10, 9, 9, 5, 5, 1, 1, 1, 1, 1, 1, 8, 6, 6, 6, 5, 4, 11, 10, 10, 8, 8, 7, 4, 3, 3, 3, 3, 3, 17, 15, 15, 15, 13, 13, 14, 13, 12, 10, 10, 8, 15, 13, 13, 12, 12, 11, 16, 14, 13, 10, 7, 5, 7, 7, 5, 5, 4, 3, 18, 15, 14, 11, 10, 9, 15, 13, 13, 13, 11, 11, 9, 8, 8, 8, 8, 8, 10, 10, 10, 10, 10, 10, 6, 4, 4, 3, 1, 1, 19, 17, 13, 10, 8, 6, 13, 11, 11, 10, 10, 9, 10, 8, 8, 6, 5, 4, 3, 2, 2, 2, 2, 2, 12, 12, 12, 12, 12, 12, 14, 13, 13, 12, 12, 12, 17, 14, 13, 11, 6, 5, 15, 14, 13, 13, 12, 12, 15, 13, 11, 7, 4, 2, 15, 15, 11, 8, 6, 5, 16, 16, 14, 14, 13, 12, 16, 15, 14, 13, 12, 11
 |10, 9, 9, 9, 9, 9, 17, 16, 16, 14, 14, 13, 19, 18, 17, 16, 15, 13, 12, 12, 12, 11, 11, 10, 18, 18, 15, 12, 12, 9, 20, 20, 20, 20, 20, 20, 19, 15, 15, 13, 12, 9, 17, 15, 13, 10, 8, 8, 12, 11, 9, 8, 4, 3, 19, 17, 15, 14, 12, 9, 15, 14, 14, 13, 12, 12, 9, 8, 7, 7, 6, 4, 17, 13, 11, 10, 6, 6, 20, 19, 18, 16, 15, 14, 11, 10, 10, 10, 9, 8, 18, 16, 15, 13, 11, 7, 3, 3, 3, 3, 3, 3, 18, 17, 17, 17, 17, 17, 19, 18, 18, 18, 18, 18, 4, 3, 2, 2, 1, 1, 15, 14, 14, 12, 11, 10, 4, 4, 4, 3, 3, 3, 15, 13, 13, 12, 10, 10, 12, 11, 9, 5, 3, 3, 14, 14, 12, 11, 9, 7, 14, 14, 14, 13, 13, 12, 17, 17, 14, 10, 8, 5, 17, 17, 16, 14, 14, 12, 15, 11, 11, 8, 6, 4, 12, 11, 8, 7, 6, 4, 6, 6, 6, 5, 5, 4, 14, 13, 9, 8, 7, 4, 18, 16, 15, 12, 12, 9, 9, 9, 9, 8, 8, 8, 15, 12, 10, 9, 8, 6, 7, 6, 6, 6, 6, 6, 7, 7, 7, 6, 6, 5, 13, 13, 10, 10, 7, 7, 8, 7, 7, 5, 3, 3, 7, 6, 5, 4, 4, 3, 12, 9, 8, 8, 6, 4, 16, 16, 15, 12, 12, 11, 7, 7, 7, 7, 7, 7, 15, 15, 14, 12, 12, 10, 12, 11, 7, 5, 5, 3, 15, 13, 10, 8, 6, 5, 7, 6, 6, 6, 6, 6, 18, 17, 13, 10, 7, 7, 13, 10, 9, 6, 6, 2, 11, 11, 11, 11, 11, 11
 |4, 3, 3, 3, 3, 3, 12, 9, 9, 7, 7, 5, 13, 9, 8, 6, 5, 2, 16, 15, 15, 15, 15, 15, 15, 13, 11, 10, 9, 5, 18, 17, 15, 14, 11, 11, 11, 10, 9, 9, 7, 7, 15, 13, 13, 10, 6, 5, 14, 12, 10, 6, 4, 1, 6, 5, 5, 5, 4, 4, 17, 14, 14, 10, 10, 8, 7, 6, 6, 5, 4, 4, 6, 5, 5, 5, 5, 5, 16, 16, 16, 16, 16, 16, 15, 15, 14, 11, 10, 9, 17, 13, 12, 9, 6, 4, 3, 2, 2, 2, 1, 1, 12, 12, 10, 8, 6, 5, 14, 12, 11, 10, 9, 8, 9, 8, 7, 7, 6, 6, 12, 9, 8, 6, 4, 3, 10, 10, 9, 9, 8, 8, 9, 9, 9, 8, 7, 7, 12, 11, 10, 10, 10, 9, 19, 19, 18, 18, 18, 17, 18, 17, 17, 16, 15, 15, 18, 17, 17, 16, 16, 15, 14, 13, 13, 12, 12, 12, 18, 17, 15, 14, 13, 13, 15, 12, 11, 10, 9, 7, 3, 3, 3, 3, 3, 3, 9, 8, 7, 7, 5, 5, 9, 9, 8, 6, 6, 5, 7, 7, 7, 7, 7, 7, 10, 10, 9, 9, 7, 7, 19, 19, 18, 18, 17, 16, 16, 14, 10, 8, 7, 5, 20, 18, 17, 16, 16, 15, 17, 16, 16, 16, 16, 16, 9, 8, 7, 5, 4, 4, 19, 17, 15, 15, 12, 11, 8, 8, 8, 8, 8, 8, 9, 8, 7, 7, 6, 5, 5, 4, 3, 3, 2, 1, 17, 16, 15, 15, 14, 14, 11, 10, 10, 9, 8, 8, 3, 3, 3, 3, 2, 2, 18, 15, 11, 8, 6, 3, 17, 16, 12, 8, 6, 4, 8, 7, 6, 5, 4, 2
 |10, 9, 9, 7, 7, 5, 15, 14, 14, 14, 12, 12, 6, 5, 4, 4, 4, 3, 14, 13, 12, 11, 10, 8, 16, 15, 12, 9, 9, 6, 10, 9, 8, 8, 7, 7, 13, 11, 8, 6, 4, 2, 18, 15, 13, 13, 8, 7, 18, 18, 18, 17, 17, 16, 8, 7, 6, 6, 5, 5, 12, 9, 7, 6, 4, 2, 16, 14, 13, 13, 11, 11, 17, 16, 14, 11, 11, 9, 18, 18, 16, 15, 14, 11, 16, 16, 15, 14, 13, 12, 14, 13, 13, 10, 10, 8, 10, 8, 7, 6, 2, 1, 16, 15, 15, 14, 13, 13, 12, 9, 7, 7, 5, 3, 14, 11, 10, 7, 4, 2, 6, 5, 5, 5, 4, 4, 12, 9, 9, 8, 7, 5, 18, 16, 14, 10, 8, 5, 19, 18, 18, 17, 17, 17, 11, 9, 8, 7, 4, 3, 7, 6, 6, 6, 6, 6, 5, 4, 3, 3, 3, 2, 19, 18, 18, 18, 18, 18, 20, 18, 15, 15, 11, 11, 13, 13, 11, 11, 10, 8, 15, 15, 13, 11, 8, 4, 12, 11, 10, 8, 5, 5, 15, 15, 15, 15, 15, 15, 17, 16, 16, 15, 15, 15, 18, 16, 16, 14, 12, 9, 12, 10, 9, 8, 8, 7, 15, 12, 11, 8, 7, 5, 17, 15, 14, 12, 9, 4, 5, 5, 5, 5, 5, 5, 7, 6, 6, 6, 5, 4, 17, 16, 14, 14, 11, 10, 15, 15, 15, 15, 15, 15, 17, 17, 14, 13, 10, 8, 9, 8, 8, 8, 8, 8, 15, 14, 13, 8, 6, 5, 19, 16, 14, 12, 11, 10, 2, 2, 2, 2, 1, 1, 10, 7, 6, 6, 3, 3, 16, 14, 13, 11, 8, 4, 13, 10, 10, 8, 6, 4
 |11, 11, 11, 11, 10, 10, 9, 9, 7, 6, 5, 5, 17, 16, 16, 16, 15, 15, 8, 7, 7, 6, 5, 5, 11, 9, 9, 9, 8, 7, 12, 10, 10, 9, 8, 7, 19, 16, 16, 14, 14, 13, 17, 14, 12, 10, 9, 7, 17, 16, 15, 12, 11, 11, 14, 11, 11, 8, 8, 6, 15, 12, 9, 8, 3, 2, 12, 11, 10, 10, 9, 8, 11, 11, 11, 10, 9, 9, 12, 12, 12, 12, 12, 12, 18, 15, 13, 12, 11, 8, 18, 15, 12, 8, 5, 4, 13, 10, 10, 8, 7, 6, 16, 15, 15, 15, 15, 15, 9, 9, 7, 5, 4, 3, 5, 4, 4, 2, 1, 1, 16, 13, 11, 7, 3, 3, 13, 12, 12, 11, 11, 11, 10, 8, 8, 7, 6, 6, 7, 6, 6, 6, 6, 6, 14, 12, 10, 8, 6, 5, 8, 8, 6, 5, 2, 1, 20, 18, 18, 17, 16, 15, 19, 15, 15, 11, 9, 8, 14, 14, 14, 14, 14, 14, 17, 13, 12, 8, 5, 3, 13, 11, 10, 9, 7, 6, 18, 16, 16, 14, 14, 12, 14, 11, 11, 10, 7, 5, 19, 19, 19, 19, 18, 18, 18, 16, 16, 15, 14, 12, 12, 12, 12, 12, 11, 11, 18, 17, 15, 14, 11, 10, 16, 12, 8, 6, 6, 1, 12, 12, 8, 8, 5, 3, 19, 14, 10, 7, 5, 2, 14, 11, 8, 8, 4, 3, 12, 10, 9, 7, 6, 5, 10, 7, 6, 5, 5, 4, 16, 14, 14, 11, 9, 9, 15, 13, 13, 11, 11, 9, 15, 14, 12, 10, 8, 8, 9, 8, 8, 8, 8, 8, 15, 13, 10, 8, 4, 2, 17, 14, 12, 11, 8, 6, 19, 16, 15, 11, 11, 8
 |16, 14, 11, 7, 7, 2, 17, 16, 15, 15, 14, 13, 17, 15, 15, 14, 14, 13, 7, 6, 6, 4, 3, 1, 10, 10, 8, 8, 6, 6, 19, 18, 18, 18, 17, 17, 14, 13, 9, 8, 6, 5, 2, 2, 2, 2, 2, 2, 8, 7, 7, 6, 6, 5, 6, 4, 4, 3, 2, 2, 12, 11, 10, 9, 7, 7, 17, 14, 13, 11, 11, 9, 20, 17, 14, 11, 10, 7, 7, 5, 5, 4, 4, 3, 14, 12, 11, 9, 8, 6, 12, 11, 11, 10, 10, 10, 10, 9, 9, 9, 9, 9, 17, 15, 11, 11, 9, 7, 9, 9, 9, 9, 9, 9, 13, 13, 12, 12, 11, 11, 18, 15, 12, 9, 4, 2, 20, 18, 15, 14, 11, 8, 2, 2, 2, 2, 2, 2, 14, 14, 11, 10, 10, 7, 14, 13, 11, 10, 7, 5, 17, 15, 13, 11, 9, 8, 14, 13, 13, 12, 11, 10, 3, 3, 3, 3, 3, 3, 12, 11, 10, 8, 8, 7, 3, 3, 3, 3, 3, 3, 13, 13, 12, 11, 10, 9, 19, 19, 18, 17, 15, 15, 16, 16, 16, 16, 16, 16, 18, 17, 15, 15, 12, 11, 14, 11, 9, 6, 3, 2, 14, 12, 11, 11, 10, 9, 3, 3, 3, 3, 2, 2, 15, 15, 13, 12, 11, 10, 2, 1, 1, 1, 1, 1, 15, 14, 14, 13, 13, 12, 17, 13, 11, 7, 3, 1, 11, 11, 11, 10, 10, 9, 20, 19, 18, 16, 16, 15, 19, 15, 13, 11, 6, 4, 2, 2, 2, 2, 2, 2, 20, 17, 16, 15, 13, 11, 15, 13, 10, 10, 4, 4, 4, 3, 3, 3, 2, 2, 19, 14, 12, 7, 4, 4, 5, 5, 4, 3, 3, 2|];